(set-info :original "/tmp/sea-IwXThq/sum01_true-unreach-call_true-termination.pp.ms.o.bc")
(set-info :authors "SeaHorn v.0.1.0-rc3")
(declare-rel verifier.error (Bool Bool Bool ))
(declare-rel main@entry (Int ))
(declare-rel main@_bb (Int Int Int ))
(declare-rel main@verifier.error.split ())
(declare-var main@%_14_0 Bool )
(declare-var main@%_9_0 Int )
(declare-var main@%_10_0 Bool )
(declare-var main@%_11_0 Bool )
(declare-var main@%..i_0 Bool )
(declare-var main@%_13_0 Bool )
(declare-var main@%_4_0 Bool )
(declare-var main@%_0_0 Int )
(declare-var @__VERIFIER_nondet_int_0 Int )
(declare-var main@%.off.i_0 Int )
(declare-var main@%_2_0 Bool )
(declare-var main@entry_0 Bool )
(declare-var main@%_1_0 Int )
(declare-var main@_bb_0 Bool )
(declare-var main@%sn.0.i_0 Int )
(declare-var main@%i.0.i_0 Int )
(declare-var main@%sn.0.i_1 Int )
(declare-var main@%i.0.i_1 Int )
(declare-var main@_bb1_0 Bool )
(declare-var main@%_6_0 Int )
(declare-var main@%_7_0 Int )
(declare-var main@_bb_1 Bool )
(declare-var main@%sn.0.i_2 Int )
(declare-var main@%i.0.i_2 Int )
(declare-var main@_bb2_0 Bool )
(declare-var main@%_12_0 Int )
(declare-var main@precall_0 Bool )
(declare-var main@__VERIFIER_assert_0 Bool )
(declare-var main@_bb3_0 Bool )
(declare-var main@verifier.error_0 Bool )
(declare-var main@verifier.error.split_0 Bool )
(rule (verifier.error false false false))
(rule (verifier.error false true true))
(rule (verifier.error true false true))
(rule (verifier.error true true true))
(rule (main@entry @__VERIFIER_nondet_int_0))
(rule (let ((a!1 (and (main@entry @__VERIFIER_nondet_int_0)
                true
                (= main@%_0_0 @__VERIFIER_nondet_int_0)
                (= main@%.off.i_0 (+ main@%_1_0 1000))
                (= main@%_2_0
                   (ite (>= main@%.off.i_0 0) (< main@%.off.i_0 2000) false))
                main@%_2_0
                (=> main@_bb_0 (and main@_bb_0 main@entry_0))
                main@_bb_0
                (=> (and main@_bb_0 main@entry_0) (= main@%sn.0.i_0 0))
                (=> (and main@_bb_0 main@entry_0) (= main@%i.0.i_0 1))
                (=> (and main@_bb_0 main@entry_0)
                    (= main@%sn.0.i_1 main@%sn.0.i_0))
                (=> (and main@_bb_0 main@entry_0)
                    (= main@%i.0.i_1 main@%i.0.i_0)))))
  (=> a!1 (main@_bb main@%_1_0 main@%sn.0.i_1 main@%i.0.i_1))))
(rule (let ((a!1 (and (main@_bb main@%_1_0 main@%sn.0.i_0 main@%i.0.i_0)
                true
                (= main@%_4_0 (> main@%i.0.i_0 main@%_1_0))
                (=> main@_bb1_0 (and main@_bb1_0 main@_bb_0))
                (=> (and main@_bb1_0 main@_bb_0) (not main@%_4_0))
                (=> main@_bb1_0 (= main@%_6_0 (+ main@%sn.0.i_0 2)))
                (=> main@_bb1_0 (= main@%_7_0 (+ main@%i.0.i_0 1)))
                (=> main@_bb_1 (and main@_bb_1 main@_bb1_0))
                main@_bb_1
                (=> (and main@_bb_1 main@_bb1_0) (= main@%sn.0.i_1 main@%_6_0))
                (=> (and main@_bb_1 main@_bb1_0) (= main@%i.0.i_1 main@%_7_0))
                (=> (and main@_bb_1 main@_bb1_0)
                    (= main@%sn.0.i_2 main@%sn.0.i_1))
                (=> (and main@_bb_1 main@_bb1_0)
                    (= main@%i.0.i_2 main@%i.0.i_1)))))
  (=> a!1 (main@_bb main@%_1_0 main@%sn.0.i_2 main@%i.0.i_2))))
(rule (let ((a!1 (and (main@_bb main@%_1_0 main@%sn.0.i_0 main@%i.0.i_0)
                true
                (= main@%_4_0 (> main@%i.0.i_0 main@%_1_0))
                (=> main@_bb2_0 (and main@_bb2_0 main@_bb_0))
                (=> (and main@_bb2_0 main@_bb_0) main@%_4_0)
                (=> main@_bb2_0 (= main@%_9_0 (* main@%_1_0 2)))
                (=> main@_bb2_0 (= main@%_10_0 (= main@%sn.0.i_0 main@%_9_0)))
                (=> main@_bb2_0 (= main@%_11_0 (= main@%sn.0.i_0 0)))
                (=> main@_bb2_0 (= main@%..i_0 (or main@%_10_0 main@%_11_0)))
                (=> main@_bb2_0 (= main@%_12_0 (ite main@%..i_0 1 0)))
                (=> main@_bb2_0 (not main@%_13_0))
                (=> main@precall_0 (and main@precall_0 main@_bb2_0))
                (=> main@__VERIFIER_assert_0
                    (and main@__VERIFIER_assert_0 main@precall_0))
                (=> main@__VERIFIER_assert_0 (= main@%_14_0 (= main@%_12_0 0)))
                (=> main@__VERIFIER_assert_0 main@%_14_0)
                (=> main@_bb3_0 (and main@_bb3_0 main@__VERIFIER_assert_0))
                (=> main@verifier.error_0
                    (and main@verifier.error_0 main@_bb3_0))
                (=> main@verifier.error.split_0
                    (and main@verifier.error.split_0 main@verifier.error_0))
                main@verifier.error.split_0)))
  (=> a!1 main@verifier.error.split)))
(query main@verifier.error.split)

